robust/generate/spp_dkp_Lefebvre_et_al_2026/src/shortest_path_2_2.kp
44
77

[32.14 4.03]

[77 11]
